50
25 250 351 25 195 195 175 195 50 175 175 25 200 234 117 25 75 225 200 390 39 234 78 312 150 273 78 39 273 50 175 250 175 250 195 390 175 273 125 312 75 100 273 225 273 50 75 100 39 225 
49 490 99 49 55 55 343 55 98 343 343 49 392 66 33 49 147 441 392 110 11 66 22 88 294 77 22 11 77 98 343 490 343 490 55 110 343 77 245 88 147 196 77 441 77 98 147 196 11 441 
4249
